666 786 392 512
810 930 394 514
795 915 382 502
889 1009 419 539
774 894 360 470
859 979 445 565
827 947 363 483
749 869 370 490
756 876 428 548
684 804 413 533
722 842 390 510
771 891 402 522
799 919 391 511
854 974 376 496
779 899 395 515
727 847 360 472
728 848 444 564
943 1063 370 490
866 986 378 498
807 927 374 494
797 917 431 551
693 813 376 496
852 972 403 523
733 853 423 543
765 885 503 623
833 953 415 535
760 880 374 494
827 947 409 529
841 961 446 566
981 1101 443 563
